experiments/sat_smt/run/sat-r+/results/william.res
solved=true
solvingTime=67.9407806396484375
nActions=15