experiments/sat_smt/run/sat-r+/results/william.out
Timesteps: 1
s UNSATISFIABLE
real 0.18
user 0.01
sys 0.00
Timesteps: 2
s UNSATISFIABLE
real 0.13
user 0.03
sys 0.00
Timesteps: 3
s UNSATISFIABLE
real 0.19
user 0.05
sys 0.00
Timesteps: 4
s UNSATISFIABLE
real 0.17
user 0.10
sys 0.01
Timesteps: 5
s UNSATISFIABLE
real 0.32
user 0.22
sys 0.01
Timesteps: 6
s UNSATISFIABLE
real 0.45
user 0.28
sys 0.01
Timesteps: 7
s UNSATISFIABLE
real 0.53
user 0.38
sys 0.01
Timesteps: 8
s UNSATISFIABLE
real 0.79
user 0.60
sys 0.01
Timesteps: 9
s UNSATISFIABLE
real 1.42
user 1.24
sys 0.01
Timesteps: 10
s UNSATISFIABLE
real 2.04
user 1.75
sys 0.02
Timesteps: 11
s UNSATISFIABLE
real 5.01
user 4.49
sys 0.02
Timesteps: 12
s UNSATISFIABLE
real 8.75
user 8.16
sys 0.03
Timesteps: 13
s UNSATISFIABLE
real 15.58
user 14.86
sys 0.04
Timesteps: 14
s UNSATISFIABLE
real 16.56
user 15.79
sys 0.05
Timesteps: 15
s SATISFIABLE
real 17.35
user 16.52
sys 0.04
